Crypto/instances/phi2.cnf
p cnf 5 21
-4 -3 -1 0
-2 4 -1 0
-2 -4 1 0
2 -4 1 0
2 -4 -1 0
-2 -3 4 0
2 -3 1 0
2 4 3 0
3 -1 4 0
3 -4 1 0
-5 0
1 -3 4 0
-2 3 1 0
-4 -3 1 0
-2 -1 3 0
2 -4 -3 0
-2 -4 3 0
-2 4 1 0
-2 4 3 0
3 4 1 0
2 4 1 0
